28 28 28 87 87 87 28 87 28 87 87 28 28 87 28 87 87 28 28 87 28 87 28 87 28 87 87 28 87 87 87 28 28 28 28 87 28 28 87 87 28 87 87 87 28 28 87 28 87 87 28 28 87 87 87 28 87 87 87 87 28 87 28 87 28 28 87 87 87 87 28 28 28 28 87 87 87 87 28 87 87 28 87 87 28 87 28 87 87 28 87 28 28 87 87 87 28 87 28 28 28 87 87 87 28 87 87 28 28 28 28 28 87 28 87 87 28 28 87 87 28 87 28 87 87 28 28 28 87 87 87 28 87 28 28 28 28 28 87 87 87 28 87 28 28 87 28 87 28 28 87 87 28 87 28 87 28 87 28 28 87 87 87 87 28 28 28 87 87 28 28 28 87 28 87 28 28 28 87 87 87 87 28 28 87 87 28 87 87 28 28 87 28 87 87 87 28 28 87 87 87 28 28 87 87 28 87 28 87 87 87 87 87 28 28 28 28 28 28 28 87 87 28 28 87 28 28 87 87 28 87 87 28 28 87 28 87 87 28 87 87 28 87 28 87 28 87 28 87 28 87 87 28 28 28 87 87 87 87 87 87 87 87 28 28 87 87 28 28 28 28 28 87 28 87 87 87 87 28 28 28 28 28 28 87 28 28 87 28 28 87 28 28 87 87 87 28 28 28 87 87 87 28 28 28 87 28 28 87 28 87 87 87 87 28 28 28 87 28 87 28 87 87 87 87 87 87 28 28 28 28 87 28 28 28 87 28 87 28 28 28 87 28 87 87 87 28 28 87 87 28 28 87 28 28 28 87 28 87 28 87 87 28 28 28 87 28 87 28 28 28 87 28 28 87 28 28 28 87 87 87 28 28 87 28 28 28 28 87 87 87 28 87 87 87 28 87 87 28 28 28 87 87 87 28 87 28 28 87 28 28 87 87 87 87 28 28 87 87 87 87 28 28 87 28 28 28 28 28 87 28 87 87 28 87 87 28 28 28 28 87 87 28 28 87 87 87 87 87 28 87 87 87 28 87 28 87 28 87 87 28 28 87 28 87 28 28 87 87 87 28 28 87 28 87 28 28 87 28 28 28 28 28 28 87 28 87 87 87 28 87 28 87 28 87 28 87 87 28 87 87 87 28 28 28 28 87 87 87 28 28 28 87 87 28 87 28 28 87 28 87 28 87 28 87 28 87 87 28 28 87 28 28 87 87 28 28 87 28 28 28 28 28 28 28 87 28 28 28 87 87 87 28 28 28 28 87 28 28 28 87 28 87 28 28 28 87 28 28 87 87 28 28 28 87 87 28 87 28 28 87 87 28 28 28 87 87 28 28 28 87 28 87 87 87 87 28 28 28 28 28 28 87 87 28 87 87 87 87 87 28 87 87 87 28 28 87 28 87 28 87 87 87 28 87 28 28 87 87 87 28 28 28 28 28 87 28 28 28 87 28 87 87 28 28 87 87 28 28 87 28 87 87 28 28 28 87 87 28 87 87 87 28 28 28 87 87 87 87 28 87 28 28 28 28 87 28 28 87 87 87 28 87 87 87 28 28 28 28 87 28 28 87 28 28 28 28 28 87 28 87 87 28 28 28 87 87 87 28 87 28 28 28 28 87 28 28 28 87 87 87 87 87 87 28 28 87 87 87 87 87 87 87 28 28 87 28 28 87 87 28 28 87 87 28 87 87 87 28 87 87 28 87 87 87 28 28 87 87 28 87 87 28 87 28 28 87 87 87 28 87 87 87 87 87 28 87 87 28 87 28 87 28 28 87 28 28 87 28 28 28 28 28 28 87 87 87 87 87 87 28 87 87 87 28 28 28 28 28 28 28 87 28 28 87 28 87 28 28 87 87 28 28 28 87 28 28 87 87 28 87 28 28 28 28 87 87 28 87 28 87 28 87 28 87 87 87 28 28 87 28 28 28 87 87 28 87 28 28 87 87 28 28 28 87 28 87 87 87 87 87 87 28 87 28 87 87 28 28 28 28 87 87 87 87 87 28 87 28 87 87 28 87 87 87 87 28 87 28 28 87 28 28 87 28 87 87 28 28 28 87 28 28 87 28 28 87 28 87 28 28 87 87 28 87 87 87 28 28 28 87 28 87 28 28 28 28 28 87 28 87 87 87 28 87 28 28 87 87 28 28 87 28 28 28 87 28 28 28 87 87 87 87 87 28 28 28 28 28 28 87 28 28 87 28 28 28 87 28 87 28 87 87 87 28 28 87 28 28 87 28 28 87 28 87 28 28 28 87 87 28 87 28 87 87 87 87 87 87 28 87 28 87 87 87 28 28 87 87 87 87 87 87 87 28 87 87 87 28 87 87 87 28 87 28 28 87 28 28 28 87 28 87 87 28 87 87 28 28 87 28 28 87 28 87 87 28 87 87 28 87 28 28 28 28 87 28 28 28 87 87 87 87 28 87 28 28 87 87 87 28 87 87 28 28 87 28 28 87 87 87 87 28 28 87 87 87 28 28 28 28 87 28 28 28 87 28 87 87 28 28 28 28 28 28 28 28 87 87 28 87 87 28 28 28 28 28 28 87 28 28 87 28 87 28 87 87 87 87 28 87 28 87 28 87 28 87 28 87 87 87 87 87 87 87 87 28 28 28 87 87 87 87 28 28 28 28 28 87 87 87 87 28 28 28 87 87 87 28 87 87 87 28 28 87 28 28 28 87 87 28 28 28 28 87 87 28 87 28 28 87 87 28 28 28 87 28 28 87 28 87 28 28 28 87 28 87 28 87 87 28 87 28 87 28 87 87 87 87 87 28 87 87 87 28 28 28 28 87 28 87 87 87 28 28 87 87 28 28 87 87 28 87 28 28 87 28 87 87 28 87 87 28 87 87 28 28 28 87 28 28 87 87 28 28 28 87 28 28 28 28 28 87 87 87 87 87 87 87 87 28 87 87 28 87 28 87 28 87 87 87 28 87 87 28 28 87 28 87 28 87 28 87 28 28 87 28 28 87 28 87 87 28 87 28 28 28 28 87 87 28 87 28 28 28 87 87 28 28 87 87 87 28 87 28 28 87 87 87 28 28 87 28 87 28 87 28 87 28 28 87 87 28 87 28 87 87 28 28 87 28 28 87 87 28 28 28 87 28 87 28 87 87 87 87 28 87 28 87 28 87 87 28 28 87 87 87 28 28 28 28 87 28 28 87 87 87 87 87 28 87 28 28 87 28 28 87 28 87 87 87 87 87 28 28 28 28 28 87 87 28 28 87 87 87 28 87 87 28 28 28 28 87 87 28 87 28 28 28 28 28 87 28 87 28 87 28 28 87 28 28 28 87 87 28 87 28 28 87 87 87 28 28 28 28 87 28 87 87 87 28 28 87 87 28 87 87 87 28 87 28 87 28 28 87 87 28 28 87 28 28 87 87 87 28 28 28 87 28 28 28 87 87 28 87 87 28 28 87 87 28 87 28 28 28 28 28 28 28 28 87 87 87 28 28 28 87 87 87 87 28 28 87 28 87 28 28 87 87 87 87 28 87 28 87 28 28 87 87 87 28 28 87 28 87 28 28 87 28 28 87 87 87 28 87 87 87 28 87 87 28 28 28 28 87 87 28 28 87 28 28 28 87 87 28 87 28 87 28 28 28 28 28 28 87 28 28 87 28 87 87 87 28 87 87 28 87 28 28 87 87 87 28 28 87 87 28 87 87 87 28 28 87 87 87 87 87 87 28 28 87 28 28 28 28 28 87 28 87 28 28 28 87 28 87 87 28 28 87 87 87 28 28 87 87 87 87 87 87 28 28 87 28 87 28 87 87 28 87 87 28 28 28 28 87 28 28 87 28 87 87 28 28 28 28 28 28 28 28 28 28 87 28 87 28 87 87 28 87 87 28 28 87 28 87 87 87 28 87 28 28 87 87 28 87 28 87 28 28 87 28 87 87 87 87 28 28 87 87 28 28 87 87 28 28 87 28 28 28 87 28 28 87 28 87 87 28 87 87 87 87 28 87 28 28 87 87 87 87 28 28 28 28 28 87 87 28 87 28 28 87 87 87 87 87 87 28 28 87 28 28 28 87 28 87 28 28 87 87 28 28 28 28 87 28 28 87 87 28 87 28 28 87 28 87 87 28 28 28 87 87 87 28 87 28 28 28 87 28 28 87 28 28 28 28 87 87 87 87 87 87 87 28 87 28 28 28 28 87 87 28 87 28 87 87 87 28 87 28 87 28 28 28 87 87 28 87 87 28 28 87 28 28 87 28 87 28 87 28 87 28 87 87 87 87 28 87 28 28 28 87 87 87 28 28 87 87 28 28 28 87 28 87 28 28 87 87 28 87 28 28 28 87 28 28 87 87 87 87 28 28 87 87 87 28 28 87 87 87 28 28 28 28 87 87 87 87 87 28 87 87 87 87 87 87 28 87 87 28 87 87 28 87 87 28 87 28 28 87 28 28 28 87 87 28 28 87 28 28 87 87 28 87 87 28 87 28 87 28 28 87 28 87 28 28 28 28 87 87 28 28 28 87 87 28 87 28 87 28 87 87 28 87 87 28 28 28 28 28 87 87 87 28 87 28 87 28 87 87 28 28 28 28 28 28 87 28 87 87 28 28 87 87 28 28 87 87 87 28 87 87 28 87 28 28 28 28 87 28 28 28 87 87 87 28 87 28 28 87 28 87 28 87 87 87 28 87 28 28 28 28 28 87 28 87 28 87 28 28 28 87 28 28 87 28 87 87 87 28 28 87 28 87 87 87 28 28 87 87 87 87 28 28 87 87 28 87 87 87 28 28 87 87 87 87 87 87 28 87 87 87 87 28 87 87 28 28 28 87 28 28 87 87 87 87 87 28 87 87 28 87 28 28 87 28 87 87 87 28 28 87 28 28 28 28 87 28 28 28 28 87 28 28 28 28 28 28 28 87 87 87 87 28 87 87 28 87 28 28 28 87 28 87 28 87 28 28 28 87 28 87 28 87 28 87 28 28 28 87 28 28 28 28 28 28 28 87 28 87 28 87 87 87 87 87 87 28 28 87 87 87 87 28 87 87 28 87 28 87 87 87 87 28 28 28 87 87 28 28 28 87 28 28 87 28 28 87 28 28 87 28 28 28 87 87 28 28 87 87 28 87 87 28 87 28 87 87 28 28 87 87 28 28 87 28 28 28 87 87 87 87 28 87 28 28 87 87 87 87 87 28 87 87 28 87 28 28 28 28 28 28 28 87 87 28 87 28 28 87 28 28 87 87 28 87 28 28 87 28 28 28 28 87 28 87 87 28 28 28 87 87 87 28 28 28 28 28 87 87 28 87 28 28 87 28 28 87 87 87 28 87 28 87 87 87 87 87 28 87 87 28 87 87 28 28 28 87 87 87 87 28 87 28 28 87 87 87 87 28 87 87 28 28 87 28 87 28 28 28 28 28 28 28 87 87 28 28 87 28 28 87 28 28 28 87 87 87 87 87 28 28 87 87 87 28 28 87 87 87 87 28 87 28 87 87 28 28 28 28 28 28 28 87 87 87 87 87 87 87 28 28 28 28 28 87 87 87 87 87 28 87 28 28 28 87 28 87 28 87 28 87 28 87 87 87 28 87 87 28 28 28 28 87 28 87 87 28 28 28 87 87 28 28 28 28 28 87 28 28 87 28 28 87 28 87 87 87 87 87 87 28 87 28 87 28 28 87 87 87 28 87 87 28 87 28 87 28 28 28 87 87 87 87 87 87 87 87 87 87 87 87 87 87 28 87 28 28 87 87 28 87 87 87 28 87 28 28 87 28 87 87 28 28 87 28 28 87 28 28 28 28 87 28 87 28 28 28 87 28 28 87 28 87 87 87 87 28 28 87 87 87 28 28 28 28 87 87 87 28 28 28 28 28 87 28 28 28 87 28 87 87 28 87 87 28 87 87 28 87 28 28 87 87 28 28 28 28 28 28 28 87 87 87 87 87 28 28 28 28 87 87 28 87 87 28 28 87 87 87 87 28 87 87 28 28 28 87 87 87 87 28 28 87 28 28 28 87 87 87 87 87 87 28 87 87 28 87 28 28 87 28 87 87 87 28 28 28 28 87 87 28 28 28 87 28 87 28 28 87 28 28 87 87 28 28 87 87 28 28 28 28 28 28 87 28 87 28 87 28 28 87 28 28 28 28 87 28 87 28 28 28 28 87 28 87 28 87 87 87 28 28 28 87 87 28 28 87 28 87 28 87 87 87 28 87 28 28 28 28 28 28 28 87 28 87 87 87 87 87 87 87 28 28 87 28 28 87 28 87 87 87 87 87 28 87 87 87 28 87 87 87 28 28 87 87 28 87 87 87 87 87 87 28 28 87 87 87 87 28 87 87 87 28 28 28 28 28 28 87 28 28 28 87 87 28 87 87 87 87 87 87 87 87 87 87 87 87 87 28 87 28 28 87 87 87 28 28 87 87 28 28 87 87 87 87 87 87 87 87 28 87 87 28 87 87 28 28 28 87 87 28 28 28 28 28 87 87 87 87 87 28 28 87 87 28 28 87 87 28 87 28 87 87 87 87 28 87 28 87 87 28 28 28 28 87 87 28 87 87 28 87 28 87 28 28 87 87 28 87 28 28 28 28 87 28 87 28 28 28 28 28 28 87 87 87 87 87 28 87 87 87 87 87 87 28 28 87 28 28 87 28 87 28 87 87 28 87 28 87 87 87 87 28 87 87 28 87 28 87 87 28 87 28 28 87 87 28 28 87 87 28 28 87 28 28 28 87 87 87 87 87 28 87 28 28 28 87 87 87 87 87 28 87 28 28 87 87 87 28 87 87 28 28 87 87 87 28 87 87 87 87 87 28 28 28 87 87 28 87 87 28 28 28 28 87 87 87 87 87 28 87 87 87 28 28 87 87 87 87 87 87 28 28 28 87 87 87 87 87 87 87 28 28 28 28 87 87 28 87 87 87 28 28 28 87 87 28 87 87 87 28 28 28 87 87 28 87 87 28 87 28 28 87 87 87 28 87 87 87 28 28 87 87 87 28 87 87 28 28 87 28 87 28 87 87 87 28 87 87 87 28 28 28 28 87 28 87 87 87 87 28 28 87 28 28 87 87 28 28 28 28 87 28 28 87 28 28 28 28 28 28 87 28 87 28 28 28 28 28 28 28 28 87 87 87 28 87 87 87 28 28 87 28 87 28 28 28 87 87 28 28 28 28 87 28 28 28 87 87 28 87 87 87 87 87 87 87 87 28 87 28 87 87 87 28 28 28 87 28 28 28 28 87 28 28 28 87 28 28 87 87 28 87 87 87 87 87 87 87 28 87 28 87 28 28 28 87 87 28 87 28 28 28 28 87 87 87 87 28 87 87 28 28 28 28 28 28 87 28 87 28 87 28 28 28 28 87 28 28 87 28 28 28 87 87 28 28 28 28 87 28 28 87 87 87 28 87 87 28 28 87 28 28 28 87 87 87 28 87 87 28 28 28 87 87 28 28 28 87 87 28 28 28 28 87 87 28 87 87 87 28 87 28 28 28 87 28 87 28 28 87 87 28 28 87 28 87 28 87 28 28 28 87 87 28 87 87 87 87 87 87 87 87 87 28 87 87 87 87 28 87 87 28 28 28 28 87 28 87 87 87 28 28 28 28 87 28 87 87 87 87 28 87 28 28 28 28 28 28 28 87 28 28 28 87 87 87 87 28 87 87 87 28 87 28 87 87 87 87 28 87 28 87 87 87 28 28 28 87 28 87 87 87 28 28 28 28 28 28 87 28 87 87 87 87 28 87 87 87 28 28 87 87 28 28 87 87 87 28 87 28 28 87 87 87 28 28 28 87 87 28 28 87 87 28 87 28 87 28 28 28 87 87 28 87 28 28 87 28 87 28 28 28 28 28 28 28 87 87 28 87 28 28 28 28 87 28 28 87 87 87 28 28 87 87 28 28 28 28 28 28 87 87 87 87 28 28 28 28 28 87 28 28 28 87 87 87 87 28 87 87 87 87 28 87 87 87 87 87 87 28 28 87 28 87 87 87 28 28 28 28 87 87 87 28 28 87 28 28 87 87 28 87 87 28 87 87 28 87 87 28 28 87 87 87 87 87 87 28 87 28 87 87 87 87 28 28 28 28 87 28 28 28 28 28 87 28 28 87 87 87 28 28 87 28 87 87 87 87 28 87 87 87 87 87 87 28 28 28 87 28 87 28 87 28 87 28 28 87 28 28 87 87 87 87 87 87 87 87 28 28 87 28 28 87 28 87 28 87 28 87 28 87 28 28 28 87 87 87 87 28 28 87 87 87 87 87 87 87 87 28 28 87 87 28 87 28 28 28 28 87 28 87 87 28 87 87 28 87 87 28 87 87 28 87 87 28 87 87 28 87 87 87 87 87 28 87 87 87 28 28 28 28 87 28 87 87 28 28 87 87 87 87 87 28 87 87 87 87 87 28 87 87 28 87 28 28 87 28 28 87 87 87 28 87 87 28 87 28 87 28 28 87 28 28 28 87 28 28 87 87 87 28 87 28 28 28 87 87 87 87 87 28 87 28 28 87 87 87 87 87 28 28 87 87 28 28 87 87 87 28 87 87 87 28 28 28 87 87 28 28 87 28 87 87 87 28 28 87 28 28 87 87 87 87 28 28 28 28 87 28 87 87 28 87 28 28 87 87 28 28 28 28 28 28 28 28 87 87 87 87 28 87 87 87 28 28 28 87 28 28 87 28 87 28 87 28 87 87 28 28 28 87 87 87 28 87 87 87 87 87 87 87 87 87 87 28 87 28 87 28 28 87 87 28 28 87 87 87 87 87 28 87 87 87 87 87 87 87 87 87 87 87 87 28 87 87 87 87 87 87 28 28 87 87 87 87 87 87 87 28 87 28 28 28 28 28 28 28 87 28 87 87 28 87 28 28 28 87 87 28 87 28 87 28 28 87 28 87 87 28 28 28 87 87 87 87 28 28 28 28 87 28 87 28 87 28 87 28 28 87 87 87 87 87 28 28 87 87 28 87 28 87 28 28 87 28 28 87 87 28 28 87 87 28 28 87 28 87 28 87 87 28 87 87 28 28 87 28 28 28 87 87 87 28 87 87 28 28 87 28 87 87 87 28 28 28 28 87 28 28 28 87 87 28 87 87 28 87 28 87 87 28 28 87 28 28 87 87 87 28 28 28 28 28 87 87 28 28 28 87 87 87 87 28 28 28 28 87 28 87 28 28 87 87 28 28 28 87 28 28 28 87 87 87 87 87 87 28 87 28 28 87 28 87 28 28 28 87 28 87 28 87 87 28 87 28 87 28 28 28 28 87 28 28 87 28 87 28 87 87 87 87 87 87 87 87 28 28 87 87 28 28 28 28 87 28 28 87 28 87 28 87 28 28 28 28 87 28 87 28 28 28 28 87 28 28 87 87 87 87 87 28 87 28 28 87 28 87 28 87 87 87 87 28 28 28 28 87 28 28 28 87 87 87 87 28 28 87 28 28 28 87 87 28 28 28 28 87 28 87 87 87 28 87 28 87 87 87 87 28 87 28 28 87 28 87 87 87 87 28 28 28 28 87 87 28 28 87 28 28 87 87 28 28 87 87 87 87 28 87 28 28 87 28 28 28 28 28 87 28 28 28 28 87 28 28 28 28 28 28 87 87 28 28 28 28 28 28 87 87 87 28 28 87 87 28 28 28 87 28 28 28 28 87 87 87 28 28 28 28 87 28 28 28 87 87 28 87 87 28 87 87 87 87 87 28 28 28 87 28 28 28 28 87 28 28 87 28 87 87 87 28 28 28 87 87 28 28 87 28 87 87 28 28 87 28 87 28 28 87 28 87 87 87 87 28 28 87 87 28 87 87 87 87 28 28 87 28 87 87 87 28 87 87 87 28 28 87 87 87 87 28 87 87 28 87 87 87 28 87 87 28 28 87 28 87 28 28 28 87 28 87 28 87 87 28 28 28 28 28 87 28 28 87 87 87 28 87 28 87 87 28 28 28 28 28 87 28 87 28 28 87 28 87 87 28 28 28 28 87 87 28 28 28 28 28 87 87 28 28 87 87 87 87 28 28 28 28 87 28 28 28 28 87 28 28 87 87 87 28 87 28 87 87 87 28 28 87 87 28 28 87 28 28 87 87 28 28 87 28 28 28 28 87 28 87 87 28 28 87 87 28 28 87 28 87 87 28 87 87 87 87 87 28 28 28 28 87 87 28 87 28 87 28 87 87 28 87 28 87 87 87 87 87 87 28 87 87 87 87 87 87 87 28 28 87 87 28 87 87 87 87 87 28 28 87 28 28 87 87 28 87 87 28 87 28 28 87 28 28 28 87 87 28 28 28 28 28 87 87 28 28 87 28 87 87 28 28 28 28 28 87 87 87 87 87 28 28 28 87 87 87 87 87 28 28 87 28 87 87 28 87 28 28 28 28 28 28 87 87 87 87 28 87 87 28 28 28 87 87 28 87 87 87 28 28 28 28 87 87 28 28 87 28 28 28 87 87 87 28 28 28 28 87 28 28 28 87 87 28 87 28 28 87 28 87 87 28 28 87 28 28 87 28 87 28 87 87 28 28 28 87 87 87 87 28 28 28 87 28 87 87 28 87 28 87 87 28 28 87 28 87 28 28 28 28 87 87 28 87 28 28 87 28 28 28 87 28 87 87 87 28 28 28 28 87 87 28 28 28 28 87 87 87 87 28 28 87 28 28 87 87 87 28 28 28 87 87 87 87 87 28 28 28 87 87 28 87 87 87 87 28 28 87 87 28 28 28 28 28 87 87 28 87 28 28 87 28 28 87 28 28 28 28 28 87 28 87 87 28 28 87 28 87 87 28 28 87 87 87 28 28 87 87 28 28 28 28 87 87 87 87 87 28 28 28 28 87 28 87 87 87 87 28 87 28 87 28 28 87 87 87 28 87 87 28 87 87 87 87 87 87 87 87 87 28 28 28 87 28 28 87 28 87 28 87 28 28 28 87 28 28 87 28 87 87 87 87 87 87 87 28 28 28 28 28 87 28 87 87 87 87 87 28 87 28 28 28 87 28 28 87 87 28 28 87 28 28 87 87 28 28 28 87 87 87 28 87 28 87 28 28 87 28 28 87 28 87 28 28 28 87 28 87 28 87 87 87 28 28 87 28 87 28 28 87 87 28 87 28 28 28 28 28 28 87 28 87 87 87 28 87 87 28 87 28 28 87 28 28 28 87 87 28 28 28 28 28 87 87 28 28 28 87 87 87 87 28 87 87 28 87 87 28 28 87 87 87 28 87 28 87 87 28 87 28 28 28 28 28 28 87 28 28 87 28 28 87 28 87 87 87 87 28 87 28 28 87 28 87 87 28 28 87 87 28 87 28 87 28 28 87 28 87 28 28 28 87 28 87 87 28 28 87 87 28 28 87 28 28 87 87 87 28 87 87 87 87 87 28 28 28 28 87 28 87 28 87 87 87 28 28 87 87 28 87 28 28 87 87 87 28 87 87 87 28 87 28 28 87 87 28 28 28 28 87 28 28 28 28 28 87 87 28 87 87 87 28 28 87 28 28 28 87 28 87 28 28 28 87 87 28 28 28 87 28 87 28 87 28 87 28 28 28 28 28 28 28 87 87 28 28 28 28 28 87 28 87 28 87 28 28 28 87 28 28 28 28 87 28 87 87 28 28 28 87 87 87 28 87 87 87 28 28 28 28 28 87 28 28 87 87 87 28 28 28 87 87 87 87 87 87 28 28 28 87 28 28 28 87 28 28 87 28 28 87 87 87 87 28 28 28 87 87 87 28 28 28 28 87 28 28 87 87 87 87 28 28 28 87 28 28 28 87 87 87 87 87 28 87 28 87 28 28 87 87 87 87 28 87 87 87 28 87 28 87 87 87 28 87 87 28 28 28 28 28 87 28 28 28 28 87 28 28 87 87 28 87 87 87 87 87 87 87 87 28 87 28 28 28 28 28 87 87 28 28 28 28 87 87 87 87 87 28 28 87 28 87 28 28 87 28 28 87 28 87 87 28 28 28 28 87 28 28 87 87 28 28 28 28 28 28 28 28 87 87 87 87 87 28 28 87 87 28 28 87 28 28 28 87 87 87 87 28 87 87 28 28 28 87 87 87 28 87 28 87 87 28 87 28 87 28 28 28 87 87 28 28 28 87 28 87 28 28 28 28 28 28 87 87 28 87 87 28 87 87 28 28 28 28 87 87 87 28 28 28 87 87 87 28 87 87 28 28 28 28 87 28 87 87 28 28 28 87 87 28 87 28 87 28 87 87 28 28 87 87 87 87 87 87 28 28 87 28 87 87 87 28 28 87 28 87 28 87 87 87 87 87 28 87 87 87 28 28 28 28 87 28 28 87 28 87 28 87 28 87 87 28 28 28 28 87 28 28 28 87 28 28 87 87 28 87 87 87 87 28 28 87 87 87 87 87 28 87 87 87 87 87 87 28 28 28 28 87 87 87 87 28 28 28 87 28 28 87 28 28 87 28 28 87 28 87 87 87 87 87 28 87 87 28 28 28 87 87 87 28 28 87 87 87 28 87 28 28 28 28 87 28 87 87 28 28 87 87 87 87 87 28 87 28 87 28 87 87 28 87 28 87 28 87 28 87 87 87 28 28 28 87 87 28 87 87 28 87 87 28 87 87 87 87 28 87 28 87 87 87 87 87 28 28 87 87 87 87 87 28 87 87 28 87 28 28 87 87 28 87 28 28 28 28 28 87 28 87 87 87 28 28 87 87 87 87 87 87 87 87 87 87 87 28 28 87 28 28 87 87 87 87 87 28 28 28 28 28 87 87 28 28 28 28 28 28 28 28 87 28 28 87 87 87 28 28 87 87 87 87 28 87 87 28 28 87 87 28 28 87 28 87 28 87 28 87 28 87 28 28 28 28 28 28 28 28 87 28 28 28 28 87 28 87 28 28 87 87 87 28 87 28 28 87 28 87 87 87 87 87 87 28 28 28 28 87 87 28 28 87 87 87 87 87 87 87 28 87 87 28 28 87 87 87 87 28 87 28 28 87 28 28 87 87 28 28 87 28 87 28 28 28 28 87 28 87 87 87 87 87 28 87 87 28 87 28 87 28 87 28 28 28 28 28 28 87 87 28 28 28 87 28 87 28 28 28 28 28 28 87 28 87 87 28 28 87 87 28 28 87 87 28 28 28 87 87 28 28 28 28 87 28 87 87 28 28 28 87 87 87 87 28 87 87 87 28 28 28 87 87 28 87 28 28 87 87 28 28 28 28 87 28 87 87 28 28 28 87 87 28 87 87 87 87 28 28 28 87 87 28 87 28 28 87 87 28 87 87 28 28 28 28 87 28 87 28 28 28 28 28 28 28 28 28 28 87 87 87 87 87 28 28 87 87 28 87 87 28 87 28 87 28 87 87 28 87 28 87 87 87 28 28 28 87 87 87 28 28 87 28 28 28 87 28 28 28 87 28 87 87 87 87 87 28 87 28 28 28 28 28 28 87 87 87 87 28 87 28 87 87 28 28 28 28 28 28 28 28 87 28 28 28 87 28 87 87 87 28 87 28 28 28 28 28 87 87 87 87 28 87 28 87 87 87 87 28 28 28 87 87 87 28 28 87 28 28 28 28 87 28 28 28 87 87 28 87 87 28 28 87 87 87 87 87 87 87 28 87 28 28 87 87 87 28 87 28 87 28 28 87 87 87 87 28 87 28 28 28 87 87 28 87 87 28 87 28 87 28 28 28 87 28 28 28 87 87 87 87 28 28 87 87 28 87 28 87 28 87 28 87 28 87 87 28 28 28 87 28 87 28 28 28 87 87 87 87 87 87 87 87 87 28 87 28 28 28 28 28 28 87 28 87 87 28 87 87 87 87 28 28 87 87 87 87 28 87 28 28 87 28 28 87 87 28 87 87 87 28 28 87 87 87 87 87 28 87 87 87 28 87 28 28 87 28 28 28 28 87 28 28 87 87 87 87 87 87 87 87 28 28 87 28 28 28 87 28 28 87 28 87 87 87 28 28 28 28 87 87 28 28 28 28 87 28 87 87 28 87 87 28 87 28 87 28 87 87 87 28 28 28 87 28 28 28 87 87 87 28 87 87 87 87 28 87 28 28 87 28 87 28 87 87 87 87 28 87 28 87 28 87 28 28 28 28 28 87 28 28 28 87 28 28 87 28 87 28 87 87 87 87 28 87 87 28 28 87 28 87 87 28 87 28 87 28 87 28 28 87 28 87 87 87 87 87 28 87 28 87 87 87 87 87 87 28 28 28 28 28 28 28 87 28 87 87 28 28 87 87 28 28 28 28 28 28 28 28 28 87 28 28 87 28 28 28 87 28 87 28 87 87 87 87 28 28 87 87 87 87 28 28 28 87 87 28 28 28 87 87 28 28 28 87 87 28 28 28 87 28 87 87 28 28 87 28 87 87 28 87 28 87 28 87 87 28 28 28 87 28 28 28 87 28 28 28 87 87 87 87 87 87 87 28 28 87 87 28 87 87 28 28 87 87 87 28 28 28 87 28 28 87 28 28 28 87 87 28 28 87 28 28 28 28 87 87 28 28 87 28 28 28 28 28 87 28 87 28 87 28 28 28 28 87 28 87 87 28 28 28 87 87 87 28 28 28 28 87 87 28 28 28 28 87 87 28 28 28 87 87 87 28 28 28 28 87 28 87 87 87 28 87 87 87 28 28 28 87 28 28 87 87 87 28 28 87 87 87 28 87 87 28 87 87 87 28 87 28 28 87 28 28 87 28 28 28 87 87 87 28 28 87 87 28 28 28 28 28 28 28 28 87 87 28 87 28 28 87 87 87 28 87 28 28 28 87 28 87 87 28 28 28 28 28 87 87 87 87 28 87 28 87 87 28 87 87 87 28 87 28 28 28 28 28 28 87 28 87 87 87 28 87 28 87 28 87 87 87 87 28 87 28 28 87 87 28 87 28 87 87 87 87 87 28 28 28 28 87 28 87 87 87 87 87 87 28 87 87 28 87 28 28 28 87 28 28 87 28 87 87 87 87 87 87 28 28 28 28 87 87 28 87 87 28 87 87 87 87 87 87 87 28 28 28 28 28 28 28 87 28 87 87 87 87 87 28 87 28 87 87 28 28 87 28 87 28 28 28 28 28 28 87 87 87 28 87 28 87 28 87 87 28 87 87 87 28 28 87 87 87 87 87 28 87 28 87 28 28 28 28 87 87 28 28 87 87 28 87 28 87 87 28 87 87 28 87 28 87 87 87 87 87 87 87 87 28 87 87 87 28 28 28 28 87 87 28 87 28 28 28 28 28 87 28 87 28 28 28 87 28 28 87 28 28 87 87 28 87 87 28 28 28 87 87 28 87 87 28 28 28 28 28 28 28 87 28 28 87 87 28 28 87 28 28 28 87 28 87 87 28 87 87 87 87 87 28 28 87 87 87 87 28 28 28 28 87 87 87 87 87 28 28 87 87 87 87 87 28 87 28 87 87 28 87 28 28 28 87 87 87 87 87 28 87 28 87 87 28 87 87 28 28 28 87 87 87 87 87 28 87 28 87 28 87 87 87 87 87 87 87 87 87 87 28 87 28 87 87 87 87 87 28 87 87 28 87 87 28 87 28 87 87 28 28 87 87 28 87 87 28 87 87 28 87 28 87 28 28 87 28 87 28 28 87 28 87 87 28 87 87 87 87 87 87 28 28 87 87 28 87 28 87 87 87 87 28 87 87 28 28 28 28 87 87 28 28 28 28 87 28 28 87 28 87 87 87 28 87 87 87 87 28 87 87 28 28 87 87 28 28 28 87 87 28 28 28 87 87 87 87 28 28 87 87 28 28 87 87 28 87 28 87 28 28 87 87 87 87 87 28 28 28 87 28 87 28 87 87 28 87 87 87 87 28 87 28 87 87 87 28 87 28 28 28 87 87 28 28 87 87 87 87 28 87 28 87 28 87 87 87 87 28 87 87 87 87 87 87 87 87 28 87 28 28 28 28 28 28 87 28 28 28 28 87 28 28 87 28 28 28 28 28 87 87 87 87 87 87 87 28 87 28 28 28 87 28 87 28 87 28 28 28 87 87 28 28 28 87 87 87 28 87 87 28 87 87 28 87 87 28 28 87 87 28 28 28 87 28 87 87 87 28 28 87 87 87 87 28 87 87 87 28 87 87 87 87 87 28 28 87 87 87 87 28 28 28 87 28 87 87 28 28 87 87 28 87 28 28 28 28 87 28 28 87 28 28 28 28 28 87 28 28 87 28 87 87 87 87 28 28 28 28 87 28 28 28 28 87 28 87 87 28 87 28 28 28 87 87 28 28 87 87 28 28 87 28 28 87 87 87 28 28 28 28 87 28 28 28 28 87 28 28 28 28 87 87 28 28 28 87 87 28 87 28 87 87 28 28 28 28 87 87 87 28 87 87 87 28 28 87 28 87 28 87 87 87 87 28 28 28 28 28 28 28 28 28 87 87 28 28 28 28 28 28 87 28 28 28 87 87 28 28 87 87 28 87 87 87 28 28 28 87 28 87 87 87 87 87 87 28 28 28 87 87 87 87 87 28 28 87 28 87 87 28 28 28 87 28 28 28 28 28 87 87 28 87 87 28 87 87 87 28 28 87 28 28 28 28 87 87 87 28 28 87 87 87 28 87 28 28 87 87 87 87 87 28 87 87 28 87 87 28 28 28 87 87 87 28 87 87 28 87 28 87 87 87 87 28 87 87 87 87 87 87 87 28 87 87 28 28 87 87 87 28 28 87 87 87 28 87 87 28 87 87 28 87 87 87 28 87 87 87 28 87 87 28 28 87 87 28 28 87 28 87 87 87 87 87 87 87 87 28 28 87 28 87 87 28 87 28 28 87 28 87 28 87 87 87 87 87 28 87 87 87 87 87 28 87 87 28 87 87 87 28 87 28 87 87 87 87 87 87 28 28 87 87 28 87 87 87 87 87 87 28 87 87 28 28 87 87 28 28 87 28 87 28 28 87 28 28 28 28 28 87 28 87 87 87 87 87 87 28 87 87 87 28 87 28 87 28 28 28 87 87 28 87 28 87 28 87 28 87 87 28 87 28 28 87 28 28 87 87 87 28 87 87 87 28 87 87 87 28 87 87 28 28 87 87 28 28 28 87 28 28 28 28 87 87 28 28 87 87 28 87 28 87 28 28 28 28 28 28 87 28 28 87 87 28 87 28 28 28 87 87 87 28 87 87 87 28 87 87 28 28 87 87 28 28 28 87 87 28 28 28 87 87 28 28 87 28 87 28 28 87 28 28 87 28 87 87 28 87 87 87 28 87 28 28 87 87 28 87 28 28 28 87 28 87 28 28 87 28 87 28 87 87 87 87 28 87 87 87 87 87 28 87 87 87 28 87 87 87 28 87 28 87 87 28 28 28 87 28 87 28 87 87 28 87 87 87 28 87 28 28 87 87 28 28 87 87 28 87 28 87 87 87 28 87 28 87 28 87 28 87 28 28 87 87 28 28 87 87 28 28 87 87 28 28 28 28 87 87 87 28 28 87 28 87 28 28 87 87 28 28 87 87 87 28 87 28 87 87 87 28 87 87 28 28 28 87 28 28 28 28 87 87 28 87 87 87 28 87 28 87 28 28 87 28 87 87 87 87 87 87 87 87 87 28 87 87 87 28 28 28 87 87 28 28 87 28 87 28 28 28 28 87 87 28 28 28 28 28 28 28 87 28 87 87 28 87 87 28 28 87 87 28 87 28 87 87 87 87 28 28 28 87 28 87 28 87 28 87 28 87 28 28 87 28 87 28 28 87 87 87 87 87 28 87 28 87 87 28 87 28 87 87 28 28 87 87 28 28 87 87 28 87 87 28 28 87 87 28 87 87 28 28 87 28 28 28 28 87 87 28 28 87 28 28 28 28 28 87 87 87 28 87 87 28 28 28 28 87 87 28 87 87 87 28 28 87 87 87 87 28 28 28 28 28 87 28 87 87 28 28 87 87 28 87 28 87 28 87 87 87 87 28 87 87 87 28 87 87 28 87 28 87 87 28 28 87 87 87 87 28 28 87 87 87 87 28 87 87 87 28 87 87 87 87 87 87 28 28 87 87 28 87 87 28 28 87 87 28 87 87 87 28 28 87 28 28 87 28 28 87 87 28 87 87 28 87 87 87 28 28 87 28 28 28 87 87 28 87 28 28 28 28 87 87 87 28 28 87 87 28 87 28 87 87 28 87 87 87 87 87 28 28 28 87 87 28 87 28 87 28 87 28 87 87 28 87 28 87 87 28 28 87 87 87 87 87 87 28 87 87 28 28 28 87 28 28 28 28 87 28 87 87 87 87 87 28 28 28 87 28 28 28 87 28 28 87 28 28 28 28 87 87 87 28 87 28 28 87 87 28 28 87 87 87 28 87 28 87 87 28 28 28 28 28 87 87 87 87 87 28 28 87 87 87 28 87 28 87 87 87 87 87 87 87 87 28 87 28 28 87 28 28 28 87 87 87 87 87 87 87 87 28 87 87 28 87 87 28 87 28 28 87 28 28 87 28 28 28 87 87 28 28 28 28 28 87 28 87 87 28 87 87 87 28 87 87 28 28 28 28 87 87 87 28 28 87 87 87 28 87 28 28 87 87 87 28 87 28 28 28 87 87 28 87 28 87 87 87 28 28 28 28 28 28 87 28 87 87 28 28 87 87 87 87 28 87 87 28 28 28 87 28 28 87 87 87 87 87 87 28 87 87 87 28 28 87 87 28 87 87 28 87 87 28 28 28 87 28 28 28 87 28 28 87 28 28 87 28 28 28 87 28 28 87 28 87 87 28 87 87 28 28 28 87 87 87 28 87 28 87 87 28 87 28 28 28 87 87 28 28 28 28 28 87 87 87 87 87 28 87 28 28 28 87 28 87 87 87 87 28 28 87 87 28 28 87 87 28 87 28 28 28 28 87 28 28 87 28 28 28 87 87 87 28 87 28 28 87 87 87 28 28 87 87 87 87 87 87 28 87 87 87 28 28 87 87 87 87 28 28 87 28 87 87 28 87 87 87 28 87 87 87 28 28 87 28 28 87 28 87 87 28 28 28 87 28 28 87 87 28 87 87 87 87 87 28 87 87 87 28 87 87 87 28 28 87 87 87 28 87 28 28 28 87 28 87 28 87 87 28 28 87 28 87 87 87 28 28 87 28 87 28 87 87 87 28 28 28 87 87 28 28 28 87 28 87 87 87 28 28 87 87 28 28 87 87 28 87 28 87 28 28 28 28 87 28 28 28 87 28 28 28 87 87 87 28 28 87 28 87 28 28 87 28 28 28 28 87 28 87 87 87 28 28 87 28 28 28 87 28 87 28 28 87 87 28 28 28 28 87 28 28 87 28 87 28 87 28 28 28 28 87 87 87 28 87 87 87 28 87 87 28 87 28 28 87 87 87 28 28 87 87 87 87 28 87 28 87 28 28 28 87 28 28 28 87 28 28 28 87 28 28 28 28 87 87 28 87 87 87 28 28 87 87 28 87 87 28 87 87 87 28 87 28 28 28 28 87 87 87 28 87 28 87 28 28 28 28 28 28 28 28 87 87 28 87 87 28 28 87 28 28 28 87 87 87 28 28 28 87 87 87 87 28 87 28 28 28 87 87 28 87 28 28 87 87 28 87 87 87 87 28 28 28 28 28 87 28 28 28 28 28 28 28 87 28 87 28 28 28 87 87 28 28 28 28 87 28 28 87 28 28 28 28 87 28 87 87 87 28 28 28 87 87 87 28 87 87 87 28 28 87 28 87 87 87 28 87 28 87 87 28 28 28 87 87 87 87 87 87 87 87 28 87 87 28 28 87 87 87 28 28 87 87 87 87 28 28 87 87 87 87 28 28 87 28 28 87 87 87 28 87 87 87 87 87 87 87 28 87 87 87 28 87 28 28 28 87 28 28 87 28 87 87 87 87 28 87 87 28 87 28 28 87 87 87 87 87 87 28 87 87 87 28 87 28 28 28 28 87 28 28 28 28 28 28 28 28 28 28 87 28 28 87 28 28 87 87 28 87 28 28 87 28 87 87 87 28 87 28 28 28 28 87 87 87 87 28 28 28 87 87 28 28 87 87 87 87 87 28 87 87 87 87 28 28 87 87 87 87 28 87 28 87 87 28 28 87 87 87 87 28 87 28 87 87 28 28 87 87 87 87 87 28 87 28 87 28 28 87 28 28 87 28 28 28 87 87 28 28 28 28 87 28 87 87 87 87 28 87 87 87 28 87 28 28 28 28 87 28 28 87 87 87 28 28 28 28 87 87 87 28 87 87 87 87 28 87 87 87 28 87 87 87 87 28 28 87 87 87 28 87 87 28 87 28 87 28 87 87 28 28 28 28 28 87 87 87 87 87 28 28 28 28 28 28 28 28 28 28 28 87 28 28 28 28 87 87 87 87 87 87 28 87 28 28 87 28 28 87 87 87 87 28 87 28 87 28 87 87 87 28 87 87 87 87 28 87 87 87 28 87 87 87 87 28 28 87 28 28 28 28 28 28 87 28 87 87 87 28 87 28 87 28 28 28 28 87 28 28 87 87 28 87 28 87 87 87 87 28 28 28 87 28 87 87 87 28 87 28 87 28 87 87 87 28 28 28 28 28 87 87 28 28 87 87 28 87 28 87 28 87 28 28 28 87 28 87 28 87 28 28 28 28 28 28 87 28 87 28 87 87 28 28 28 87 87 28 87 28 28 87 28 87 28 28 87 28 28 28 28 87 87 87 28 87 28 28 28 28 87 28 28 87 87 87 87 87 28 87 28 87 87 28 28 87 87 28 28 28 28 87 28 28 87 87 28 28 28 87 87 28 28 28 28 87 28 28 87 28 87 87 28 87 28 87 87 28 87 28 87 28 28 28 87 28 28 87 87 87 87 87 28 87 28 28 87 28 87 87 87 87 87 28 28 28 87 28 87 87 28 87 28 87 28 28 87 87 28 87 87 87 28 87 87 87 28 87 28 28 87 28 87 28 28 28 87 28 87 28 28 28 28 87 87 28 28 87 28 28 87 87 28 28 87 28 87 28 28 28 87 28 28 87 87 87 28 28 28 87 87 87 28 28 87 28 87 28 28 87 87 87 87 28 28 87 87 28 28 28 28 28 28 87 87 28 87 28 87 28 28 87 28 28 87 28 87 87 87 87 87 28 87 87 87 28 87 28 28 28 87 87 28 28 87 28 28 87 87 28 28 87 87 87 28 87 28 28 87 28 28 28 87 28 28 28 28 87 87 87 28 87 87 87 87 87 28 28 87 87 87 28 87 87 28 28 87 87 87 28 28 87 87 87 28 28 28 87 28 28 87 28 28 87 28 28 87 28 87 87 28 28 28 28 28 87 87 87 87 87 28 87 87 28 87 87 87 28 87 87 87 28 28 28 28 87 28 87 28 28 87 87 87 87 28 87 87 28 87 28 87 28 28 87 87 28 87 87 87 28 87 87 87 28 28 28 87 87 28 28 87 87 87 87 87 28 87 87 28 87 28 28 28 87 28 28 28 87 87 28 28 87 28 28 87 28 87 87 28 87 28 28 87 28 87 87 28 87 87 87 28 87 28 87 87 87 87 87 87 87 28 28 87 28 87 87 87 28 87 28 28 87 28 28 28 28 28 87 28 28 87 87 28 28 28 87 87 28 87 87 28 28 87 28 87 87 87 87 28 87 87 87 87 28 28 87 87 87 87 28 87 28 87 28 87 28 28 87 87 28 28 28 28 28 87 28 28 87 87 28 28 87 28 28 28 28 28 28 28 87 87 28 28 87 28 28 28 87 87 28 87 28 87 28 87 28 87 28 28 87 87 87 87 87 87 28 28 28 87 87 28 28 87 87 28 28 87 28 28 87 87 28 28 28 87 28 87 28 87 28 28 28 87 87 28 87 28 87 28 87 87 28 28 87 28 87 28 28 28 28 28 87 87 87 28 28 28 28 87 87 87 28 28 87 28 87 87 28 87 87 28 87 28 87 28 87 87 87 87 87 28 28 87 87 87 28 28 28 87 28 28 87 87 87 28 87 87 28 28 87 28 87 28 87 87 87 28 87 87 28 87 87 87 87 87 87 28 28 87 28 87 28 87 87 87 28 87 87 87 28 28 87 28 87 87 28 87 28 87 87 87 87 87 28 28 87 28 87 28 28 87 28 28 87 87 28 28 87 28 28 87 87 28 28 87 87 28 87 28 28 28 87 28 28 28 87 87 87 28 28 87 28 28 28 28 28 87 87 28 28 28 28 87 28 28 87 28 87 28 87 28 87 87 87 28 28 28 28 87 87 28 87 28 87 28 87 28 28 87 87 87 28 87 87 87 28 28 28 28 87 87 87 87 87 87 28 87 28 28 87 28 87 87 87 87 28 87 28 87 87 28 87 87 28 28 87 87 87 87 28 87 87 28 87 87 87 28 87 28 87 87 28 87 87 28 87 28 87 28 28 87 28 87 87 87 28 28 28 28 28 87 28 28 87 28 28 87 87 87 28 28 87 87 28 28 87 87 87 87 28 87 87 87 87 28 28 28 87 87 87 28 87 28 87 87 87 28 87 87 28 87 28 87 87 28 28 87 28 28 87 87 28 28 28 28 87 87 87 87 87 87 28 87 28 28 28 28 87 28 87 87 28 28 87 87 87 28 87 28 87 28 